c ---- [ banner ] ------------------------------------------------------------
c
c Kissat SAT Solver
c 
c Copyright (c) 2021-2024 Armin Biere University of Freiburg
c Copyright (c) 2019-2021 Armin Biere Johannes Kepler University Linz
c 
c Version 4.0.1 43f02cf3e992cb44653b35e5cb26f93281552ae0
c gcc (Ubuntu 13.2.0-23ubuntu4) 13.2.0 -W -Wall -O3 -DNDEBUG
c Thu Sep 12 12:27:46 CEST 2024 Linux abryzen9 6.8.0-41-generic x86_64
c
c ---- [ parsing ] -----------------------------------------------------------
c
c opened and reading DIMACS file:
c
c   /data/artifact/AMulet2.0_artifact/exp4/cnf_compress2rs_64/64_64_U_SP_WT_RC_GenMul_compress2rs.cnf
c
c parsed 'p cnf 36361 141513' header
c closing input after reading 2756623 bytes (3 MB)
c finished parsing after 0.03 seconds
c
c ---- [ options ] -----------------------------------------------------------
c
c --stable=0                       (different from default '1')
c
c ---- [ solving ] -----------------------------------------------------------
c
c  seconds switched rate     size/glue tier1  binary           remaining
c         MB reductions conflicts size  tier2     irredundant
c          level restarts redundant glue  trail           variables
c
c *  0.03 11 0 0 0  0 0   0   0 0.0 0 0 0 0 0% 29075 112436 36358 100%
c (  0.06 13 0 0 0  0 0   0   0 0.0 0 0 0 0 0% 29075 112436 36358 100%
c .  0.07 13 0 0 0  0 0   0   0 0.0 0 0 0 0 0% 29071 112436 36358 100%
c c  0.18 21 0 0 0  0 0   0   0 0.0 0 0 0 0 0% 36633 97549 32575 90%
c d  0.18 21 0 0 0  0 0   0   0 0.0 0 0 0 0 0% 29067 97549 32575 90%
c =  0.25 21 0 0 0  0 0   0   0 0.0 0 0 0 0 0% 29425 97549 32317 89%
c d  0.25 21 0 0 0  0 0   0   0 0.0 0 0 0 0 0% 28909 97549 32317 89%
c f  0.35 20 0 0 0  0 0   0   0 0.0 0 0 0 0 0% 31866 92830 34079 94%
c e  0.45 29 0 0 0  0 0   0   0 0.0 0 0 0 0 0% 10111 106828 23010 63%
c )  0.45 29 0 0 0  0 0   0   0 0.0 0 0 0 0 0% 10111 106828 23010 63%
c {  0.46 29 0 0 0  0 0   0   0 0.0 0 0 2 6 0% 10111 106828 23010 63%
c i  0.46 29 147 0 0 24 11 106  57 1.6 4 3 2 5 2% 10143 106824 23009 63%
c -  0.61 29 257 0 1 253 44 1000 755 4.0 18 5 2 7 19% 10178 106818 23009 63%
c -  0.78 31 384 0 2 415 52 2000 1485 4.2 21 5 2 9 22% 10215 106809 23009 63%
c c  0.89 25 417 0 2 460 49 2503 1934 4.3 20 5 2 8 23% 10236 106801 23006 63%
c d  0.89 25 417 0 2 460 49 2503 1932 4.3 20 5 2 8 23% 10233 106795 23002 63%
c b  0.90 25 417 0 2 460 49 2503 1932 4.3 20 5 2 8 23% 10233 106795 22997 63%
c u  0.90 25 417 0 2 460 49 2503 1518 4.3 20 5 2 8 23% 10236 106795 22997 63%
c v  0.92 25 417 0 2 460 49 2503 1222 4.3 20 5 2 8 23% 10236 106795 22997 63%
c w  0.93 25 417 0 2 460 49 2503 1219 4.3 20 5 2 8 23% 10236 106795 22997 63%
c
c  seconds   switched   rate       size/glue tier1    binary           remaining
c         MB  reductions conflicts       size  tier2      irredundant
c           level restarts    redundant    glue   trail           variables
c
c x  0.94 25 417 0 2 460 49 2503 1219 4.3 20 5 2 8 23% 10332 106601 22997 63%
c =  0.99 26 417 0 2 460 49 2503 1219 4.3 20 5 2 8 23% 10632 106599 22844 63%
c d  1.00 26 417 0 2 460 49 2503 1214 4.3 20 5 2 8 23% 10326 106599 22844 63%
c t  1.00 26 417 0 2 460 49 2503 1214 4.3 20 5 2 8 23% 10324 106599 22844 63%
c f  1.02 26 417 0 2 460 49 2503 1214 4.3 20 5 2 8 23% 10970 105346 23450 64%
c u  1.04 26 417 0 2 460 49 2503 1154 4.3 20 5 2 8 23% 10974 105346 23450 64%
c v  1.05 26 417 0 2 460 49 2503 1121 4.3 20 5 2 8 23% 10974 105346 23450 64%
c w  1.08 26 417 0 2 460 49 2503 1109 4.3 20 5 2 8 23% 10974 105346 23450 64%
c x  1.09 26 417 0 2 460 49 2503 1109 4.3 20 5 2 8 23% 10974 105218 23450 64%
c =  1.14 26 417 0 2 460 49 2503 1109 4.3 20 5 2 8 23% 11278 105218 23298 64%
c d  1.14 26 417 0 2 460 49 2503 1108 4.3 20 5 2 8 23% 10923 105218 23298 64%
c f  1.17 26 417 0 2 460 49 2503 1108 4.3 20 5 2 8 23% 11343 104588 23508 65%
c -  1.38 26 414 0 3 641 53 3415 1637 4.6 23 5 2 9 23% 11345 104585 23508 65%
c -  1.66 27 397 0 4 885 51 5147 2746 4.0 23 6 2 8 23% 11423 104582 23508 65%
c -  1.82 27 419 0 5 987 45 7147 3943 3.8 21 5 2 8 23% 11561 104563 23508 65%
c c  1.95 27 414 0 5 1026 43 7707 4364 3.9 21 5 2 8 23% 11597 104412 23472 65%
c d  1.95 27 414 0 5 1026 43 7707 4346 3.9 21 5 2 8 23% 11526 104411 23471 65%
c d  1.96 27 414 0 5 1026 43 7707 4346 3.9 21 5 2 8 23% 11527 104410 23470 65%
c b  1.96 27 414 0 5 1026 43 7707 4346 3.9 21 5 2 8 23% 11527 104410 23469 65%
c u  1.97 27 414 0 5 1026 43 7707 3498 3.9 21 5 2 8 23% 11549 104410 23469 65%
c
c  seconds   switched    rate       size/glue tier1    binary           remaining
c         MB  reductions  conflicts       size  tier2      irredundant
c           level  restarts    redundant    glue   trail           variables
c
c v  1.99 27 414 0 5 1026 43 7707 3021 3.9 21 5 2 8 23% 11550 104410 23469 65%
c w  2.02 27 414 0 5 1026 43 7707 3009 3.9 21 5 2 8 23% 11550 104410 23469 65%
c x  2.03 27 414 0 5 1026 43 7707 3009 3.9 21 5 2 8 23% 11580 104102 23469 65%
c =  2.12 27 414 0 5 1026 43 7707 3009 3.9 21 5 2 8 23% 12432 104102 23043 63%
c d  2.12 27 414 0 5 1026 43 7707 3002 3.9 21 5 2 8 23% 11483 104102 23042 63%
c t  2.13 27 414 0 5 1026 43 7707 3002 3.9 21 5 2 8 23% 11479 104102 23042 63%
c f  2.16 27 414 0 5 1026 43 7707 3002 3.9 21 5 2 8 23% 13086 101690 23846 66%
c u  2.22 27 414 0 5 1026 43 7707 2828 3.9 21 5 2 8 23% 13082 101690 23846 66%
c v  2.24 27 414 0 5 1026 43 7707 2737 3.9 21 5 2 8 23% 13082 101690 23846 66%
c w  2.26 27 414 0 5 1026 43 7707 2729 3.9 21 5 2 8 23% 13082 101690 23846 66%
c x  2.29 27 414 0 5 1026 43 7707 2728 3.9 21 5 2 8 23% 13117 95746 23846 66%
c =  2.39 27 414 0 5 1026 43 7707 2728 3.9 21 5 2 8 23% 13769 95744 23520 65%
c d  2.39 27 414 0 5 1026 43 7707 2697 3.9 21 5 2 8 23% 13054 95744 23520 65%
c t  2.40 27 414 0 5 1026 43 7707 2697 3.9 21 5 2 8 23% 13040 95744 23520 65%
c f  2.44 27 414 0 5 1026 43 7707 2697 3.9 21 5 2 8 23% 13404 95195 23703 65%
c -  2.69 27 401 0 6 1182 41 9383 3735 4.0 22 5 2 8 24% 13452 95192 23703 65%
c o  2.82 27 387 0 6 1316 41 10001 4252 4.0 22 6 2 8 24% 13478 95191 23703 65%
c -  3.04 27 400 0 7 1436 40 11832 5266 3.9 21 5 2 8 24% 13545 95191 23703 65%
c s  3.11 27 394 0 7 1446 38 12510 5826 3.9 21 5 2 8 24% 13582 93928 23703 65%
c e  3.19 27 394 0 7 1446 38 12510 5826 3.9 21 5 2 8 24% 11429 95365 21994 60%
c
c  seconds   switched    rate        size/glue tier1    binary          remaining
c         MB  reductions   conflicts       size  tier2      irredundant
c           level  restarts     redundant    glue   trail          variables
c
c s  3.20 27 394 0 7 1446 38 12510 5826 3.9 21 5 2 8 24% 11431 94229 21994 60%
c ^  3.21 27 394 0 7 1446 38 12510 5826 3.9 21 5 2 8 24% 11431 94229 21994 60%
c -  3.57 27 400 0 8 1708 39 14479 6146 4.0 22 5 2 7 24% 11534 94212 21994 60%
c d  3.71 27 409 0 8 1790 39 15784 7212 4.1 22 6 2 7 24% 11347 94211 21847 60%
c u  3.73 27 409 0 8 1790 39 15784 5752 4.1 22 6 2 7 24% 11359 94211 21847 60%
c v  3.77 27 409 0 8 1790 39 15784 5058 4.1 22 6 2 7 24% 11359 94211 21847 60%
c w  3.84 27 409 0 8 1790 39 15784 5053 4.1 22 6 2 7 24% 11359 94211 21847 60%
c x  3.88 27 409 0 8 1790 39 15784 5053 4.1 22 6 2 7 24% 11411 93130 21847 60%
c =  4.07 27 409 0 8 1790 39 15784 5053 4.1 22 6 2 7 24% 13117 93130 20994 58%
c d  4.07 27 409 0 8 1790 39 15784 4969 4.1 22 6 2 7 24% 11004 93130 20994 58%
c t  4.09 27 409 0 8 1790 39 15784 4969 4.1 22 6 2 7 24% 10982 93130 20994 58%
c f  4.15 27 409 0 8 1790 39 15784 4969 4.1 22 6 2 7 24% 10991 93100 21004 58%
c u  4.24 27 409 0 8 1790 39 15784 4595 4.1 22 6 2 7 24% 10995 93100 21004 58%
c v  4.26 27 409 0 8 1790 39 15784 4498 4.1 22 6 2 7 24% 10995 93100 21004 58%
c w  4.33 27 409 0 8 1790 39 15784 4481 4.1 22 6 2 7 24% 10995 93100 21004 58%
c x  4.37 27 409 0 8 1790 39 15784 4481 4.1 22 6 2 7 24% 11000 92246 21004 58%
c =  4.55 27 409 0 8 1790 39 15784 4481 4.1 22 6 2 7 24% 12498 92242 20255 56%
c d  4.55 27 409 0 8 1790 39 15784 4415 4.1 22 6 2 7 24% 10684 92242 20255 56%
c t  4.57 27 409 0 8 1790 39 15784 4415 4.1 22 6 2 7 24% 10682 92242 20255 56%
c f  4.58 27 409 0 8 1790 39 15784 4415 4.1 22 6 2 7 24% 10685 92225 20261 56%
c
c  seconds   switched    rate        size/glue tier1    binary          remaining
c         MB  reductions   conflicts       size  tier2      irredundant
c           level  restarts     redundant    glue   trail          variables
c
c -  4.80 27 409 0 9 1935 38 17307 5209 4.1 22 6 2 7 24% 10709 92225 20261 56%
c o  5.15 27 397 0 9 2145 36 20035 7587 4.0 22 6 2 7 24% 10786 92225 20261 56%
c -  5.26 27 393 0 10 2183 36 20308 7058 4.0 22 6 2 7 24% 10789 92225 20261 56%
c -  5.69 27 386 0 11 2451 36 23470 8813 3.9 22 6 2 7 24% 10856 92225 20261 56%
c s  5.95 27 380 0 11 2592 35 25011 10175 3.9 22 6 2 7 23% 10893 91254 20261 56%
c e  6.09 27 380 0 11 2592 35 25011 10175 3.9 22 6 2 7 23% 9576 94622 17704 49%
c 2  6.09 27 380 0 11 2592 35 25011 10175 3.9 22 6 2 7 23% 9575 94622 17704 49%
c s  6.11 27 380 0 11 2592 35 25011 10175 3.9 22 6 2 7 23% 9614 90965 17704 49%
c e  6.16 27 380 0 11 2592 35 25011 10175 3.9 22 6 2 7 23% 9598 90996 17686 49%
c ^  6.16 27 380 0 11 2592 35 25011 10175 3.9 22 6 2 7 23% 9598 90996 17686 49%
c -  6.44 27 361 0 12 2720 34 26787 8726 3.7 21 6 2 6 23% 9636 90996 17686 49%
c d  6.49 27 359 0 12 2740 34 26911 8816 3.7 21 6 2 6 24% 9569 90996 17645 49%
c u  6.52 27 359 0 12 2740 34 26911 7234 3.7 21 6 2 6 24% 9590 90996 17645 49%
c v  6.55 27 359 0 12 2740 34 26911 6237 3.7 21 6 2 6 24% 9591 90996 17645 49%
c w  6.56 27 359 0 12 2740 34 26911 6228 3.7 21 6 2 6 24% 9591 90996 17645 49%
c x  6.62 27 359 0 12 2740 34 26911 6225 3.7 21 6 2 6 24% 9609 88496 17645 49%
c =  6.80 27 359 0 12 2740 34 26911 6225 3.7 21 6 2 6 24% 11353 88496 16773 46%
c d  6.81 27 359 0 12 2740 34 26911 6054 3.7 21 6 2 6 24% 9538 88496 16773 46%
c t  6.82 27 359 0 12 2740 34 26911 6054 3.7 21 6 2 6 24% 9517 88496 16773 46%
c f  6.91 27 359 0 12 2740 34 26911 6054 3.7 21 6 2 6 24% 9546 88308 16809 46%
c
c  seconds   switched     rate        size/glue tier1    binary         remaining
c         MB   reductions   conflicts       size  tier2     irredundant
c           level   restarts     redundant    glue   trail         variables
c
c u  6.98 27 359 0 12 2740 34 26911 5588 3.7 21 6 2 6 24% 9549 88308 16809 46%
c v  7.01 27 359 0 12 2740 34 26911 5459 3.7 21 6 2 6 24% 9549 88308 16809 46%
c w  7.03 27 359 0 12 2740 34 26911 5454 3.7 21 6 2 6 24% 9549 88308 16809 46%
c x  7.15 27 359 0 12 2740 34 26911 5454 3.7 21 6 2 6 24% 9551 80261 16809 46%
c =  7.40 27 359 0 12 2740 34 26911 5454 3.7 21 6 2 6 24% 11243 80261 15963 44%
c d  7.41 27 359 0 12 2740 34 26911 5386 3.7 21 6 2 6 24% 9510 80261 15963 44%
c t  7.43 27 359 0 12 2740 34 26911 5386 3.7 21 6 2 6 24% 9498 80261 15963 44%
c f  7.48 27 359 0 12 2740 34 26911 5386 3.7 21 6 2 6 24% 9500 80247 15967 44%
c -  8.04 27 333 0 13 3053 32 30252 7583 3.5 20 6 2 7 24% 9523 80246 15967 44%
c -  8.65 27 315 0 14 3378 31 33857 9765 3.4 19 6 2 6 24% 9547 80246 15967 44%
c -  9.36 27 302 0 15 3712 30 37598 11600 3.3 18 6 2 6 24% 9583 80246 15967 44%
c o  9.92 27 298 0 15 3976 30 40043 13731 3.3 19 6 2 6 24% 9633 80246 15967 44%
c c 10.20 27 300 0 15 4080 30 41242 14690 3.3 19 6 2 6 24% 9739 79871 15885 44%
c d 10.21 27 300 0 15 4080 30 41242 14478 3.3 19 6 2 6 24% 9569 79871 15881 44%
c u 10.29 27 300 0 15 4080 30 41242 12072 3.3 19 6 2 6 24% 9588 79871 15881 44%
c v 10.37 27 300 0 15 4080 30 41242 10487 3.3 19 6 2 6 24% 9596 79871 15881 44%
c w 10.44 27 300 0 15 4080 30 41242 10487 3.3 19 6 2 6 24% 9596 79871 15881 44%
c x 10.52 27 300 0 15 4080 30 41242 10486 3.3 19 6 2 6 24% 9596 75796 15881 44%
c d 10.80 27 300 0 15 4080 30 41242 10481 3.3 19 6 2 6 24% 9590 75796 15878 44%
c t 10.82 27 300 0 15 4080 30 41242 10481 3.3 19 6 2 6 24% 9584 75796 15878 44%
c
c  seconds   switched     rate         size/glue tier1    binary         remaining
c         MB   reductions   conflicts        size  tier2     irredundant
c           level   restarts      redundant    glue   trail         variables
c
c f 10.83 27 300 0 15 4080 30 41242 10481 3.3 19 6 2 6 24% 9584 75793 15879 44%
c u 10.90 27 300 0 15 4080 30 41242 10033 3.3 19 6 2 6 24% 9589 75793 15879 44%
c v 10.95 27 300 0 15 4080 30 41242 9777 3.3 19 6 2 6 24% 9591 75793 15879 44%
c w 11.09 27 300 0 15 4080 30 41242 9773 3.3 19 6 2 6 24% 9591 75793 15879 44%
c x 11.17 27 300 0 15 4080 30 41242 9771 3.3 19 6 2 6 24% 9592 75139 15879 44%
c t 11.20 27 300 0 15 4080 30 41242 9771 3.3 19 6 2 6 24% 9591 75139 15879 44%
c - 11.29 27 300 0 16 4108 31 41470 8853 3.3 19 6 2 6 24% 9598 75139 15879 44%
c - 12.02 27 285 0 17 4446 30 45471 11094 3.2 18 6 2 6 24% 9643 75137 15879 44%
c - 12.58 27 272 0 18 4732 29 49594 13237 3.1 18 6 2 6 23% 9720 75136 15879 44%
c s 13.06 27 266 0 18 4973 28 52112 15513 3.2 18 6 2 6 23% 9752 74554 15879 44%
c e 13.18 27 266 0 18 4973 28 52112 15513 3.2 18 6 2 6 23% 7895 77950 14475 40%
c s 13.19 27 266 0 18 4973 28 52112 15513 3.2 18 6 2 6 23% 7920 77253 14475 40%
c e 13.21 27 266 0 18 4973 28 52112 15513 3.2 18 6 2 6 23% 7902 77271 14457 40%
c ^ 13.21 27 266 0 18 4973 28 52112 15513 3.2 18 6 2 6 23% 7902 77271 14457 40%
c - 13.45 27 262 0 19 5111 28 53836 13129 3.1 18 6 2 5 23% 7917 77271 14457 40%
c - 14.50 27 247 0 20 5689 27 58196 15255 3.0 17 6 2 6 23% 7958 77269 14457 40%
c c 14.67 27 245 0 20 5739 27 58884 15830 3.0 17 6 2 6 23% 8048 76881 14393 40%
c d 14.68 27 245 0 20 5739 27 58884 15708 3.0 17 6 2 6 23% 7920 76881 14393 40%
c u 14.77 27 245 0 20 5739 27 58884 13163 3.0 17 6 2 6 23% 7944 76881 14393 40%
c v 14.83 27 245 0 20 5739 27 58884 11573 3.0 17 6 2 6 23% 7946 76881 14393 40%
c
c  seconds   switched     rate         size/glue tier1    binary         remaining
c         MB   reductions   conflicts        size  tier2     irredundant
c           level   restarts      redundant    glue   trail         variables
c
c w 14.86 27 245 0 20 5739 27 58884 11541 3.0 17 6 2 6 23% 7946 76881 14393 40%
c x 14.97 27 245 0 20 5739 27 58884 11536 3.0 17 6 2 6 23% 7954 76058 14393 40%
c = 15.31 27 245 0 20 5739 27 58884 11536 3.0 17 6 2 6 23% 8696 76056 14022 39%
c d 15.31 27 245 0 20 5739 27 58884 11219 3.0 17 6 2 6 23% 7868 76056 14022 39%
c t 15.33 27 245 0 20 5739 27 58884 11219 3.0 17 6 2 6 23% 7854 76056 14022 39%
c f 15.41 27 245 0 20 5739 27 58884 11219 3.0 17 6 2 6 23% 7860 76023 14027 39%
c u 15.54 27 245 0 20 5739 27 58884 10454 3.0 17 6 2 6 23% 7863 76023 14027 39%
c v 15.59 27 245 0 20 5739 27 58884 10215 3.0 17 6 2 6 23% 7863 76023 14027 39%
c w 15.61 27 245 0 20 5739 27 58884 10199 3.0 17 6 2 6 23% 7863 76023 14027 39%
c x 15.77 27 245 0 20 5739 27 58884 10191 3.0 17 6 2 6 23% 7873 73383 14027 39%
c d 16.11 27 245 0 20 5739 27 58884 10191 3.0 17 6 2 6 23% 7871 73383 14026 39%
c t 16.13 27 245 0 20 5739 27 58884 10191 3.0 17 6 2 6 23% 7865 73383 14026 39%
c - 17.03 27 234 0 21 6239 27 62669 12285 2.9 17 6 2 6 24% 7895 73382 14026 39%
c - 18.10 27 222 0 22 6795 26 67251 14908 2.8 17 6 2 6 24% 7913 73379 14026 39%
c o 18.62 27 218 0 22 7067 26 70073 17378 2.8 16 6 2 6 24% 7929 73379 14026 39%
c - 19.20 27 214 0 23 7366 26 71942 16976 2.8 16 6 2 6 24% 7938 73378 14026 39%
c - 20.13 27 207 0 24 7864 25 76739 18721 2.7 16 6 2 5 24% 7984 73376 14026 39%
c d 20.92 27 202 0 24 8319 25 79965 21393 2.7 17 6 2 5 24% 7948 73374 13990 38%
c u 21.03 27 202 0 24 8319 25 79965 18121 2.7 17 6 2 5 24% 7972 73374 13990 38%
c v 21.11 27 202 0 24 8319 25 79965 16220 2.7 17 6 2 5 24% 7978 73374 13990 38%
c
c  seconds   switched     rate         size/glue tier1    binary         remaining
c         MB   reductions   conflicts        size  tier2     irredundant
c           level   restarts      redundant    glue   trail         variables
c
c w 21.22 27 202 0 24 8319 25 79965 16205 2.7 17 6 2 5 24% 7978 73374 13990 38%
c x 21.32 27 202 0 24 8319 25 79965 16203 2.7 17 6 2 5 24% 7980 73098 13990 38%
c d 21.33 27 202 0 24 8319 25 79965 16186 2.7 17 6 2 5 24% 7968 73098 13984 38%
c t 21.35 27 202 0 24 8319 25 79965 16186 2.7 17 6 2 5 24% 7960 73098 13984 38%
c c 21.42 27 202 0 24 8319 25 79965 16182 2.7 17 6 2 5 24% 7980 73014 13973 38%
c d 21.43 27 202 0 24 8319 25 79965 16168 2.7 17 6 2 5 24% 7958 73014 13973 38%
c u 21.52 27 202 0 24 8319 25 79965 15459 2.7 17 6 2 5 24% 7977 73014 13973 38%
c v 21.58 27 202 0 24 8319 25 79965 15209 2.7 17 6 2 5 24% 7978 73014 13973 38%
c w 21.74 27 202 0 24 8319 25 79965 14831 2.7 17 6 2 5 24% 7978 73014 13973 38%
c x 21.87 27 202 0 24 8319 25 79965 14825 2.7 17 6 2 5 24% 7997 72582 13973 38%
c = 22.12 27 202 0 24 8319 25 79965 14825 2.7 17 6 2 5 24% 8136 72582 13903 38%
c d 22.13 27 202 0 24 8319 25 79965 14749 2.7 17 6 2 5 24% 7959 72582 13903 38%
c t 22.15 27 202 0 24 8319 25 79965 14749 2.7 17 6 2 5 24% 7955 72582 13903 38%
c - 22.54 27 199 0 25 8518 25 81638 14579 2.7 16 6 2 5 24% 7974 72581 13903 38%
c - 23.61 27 191 0 26 9088 25 86638 17300 2.7 16 6 2 5 24% 8009 72579 13903 38%
c - 24.73 27 184 0 27 9692 24 91738 19742 2.6 16 6 2 5 24% 8060 72579 13903 38%
c s 25.65 27 182 0 27 10171 24 95802 23333 2.6 16 6 2 5 24% 8108 72316 13903 38%
c e 25.78 27 182 0 27 10171 24 95802 23333 2.6 16 6 2 5 24% 5435 79329 12409 34%
c s 25.81 27 182 0 27 10171 24 95802 23333 2.6 16 6 2 5 24% 5465 78783 12409 34%
c e 25.83 27 182 0 27 10171 24 95802 23333 2.6 16 6 2 5 24% 5440 78914 12361 34%
c
c  seconds   switched      rate         size/glue tier1    binary         remaining
c         MB   reductions    conflicts        size  tier2     irredundant
c           level   restarts       redundant    glue   trail         variables
c
c ^ 25.83 27 182 0 27 10171 24 95802 23333 2.6 16 6 2 5 24% 5440 78914 12361 34%
c - 26.02 26 183 0 28 10250 24 96935 16894 2.6 16 6 2 5 24% 5459 78914 12361 34%
c - 27.04 26 177 0 29 10758 24 102227 19367 2.6 16 6 2 5 24% 5513 78909 12361 34%
c d 27.56 26 175 0 29 11033 24 104605 21390 2.6 16 6 2 5 24% 5456 78907 12320 34%
c u 27.66 26 175 0 29 11033 24 104605 17904 2.6 16 6 2 5 24% 5484 78907 12320 34%
c v 27.74 26 175 0 29 11033 24 104605 15970 2.6 16 6 2 5 24% 5487 78907 12320 34%
c w 27.85 26 175 0 29 11033 24 104605 15816 2.6 16 6 2 5 24% 5487 78907 12320 34%
c x 27.95 26 175 0 29 11033 24 104605 15815 2.6 16 6 2 5 24% 5492 78829 12320 34%
c = 28.46 26 175 0 29 11033 24 104605 15815 2.6 16 6 2 5 24% 6246 78825 11943 33%
c d 28.47 26 175 0 29 11033 24 104605 15309 2.6 16 6 2 5 24% 5389 78825 11943 33%
c t 28.48 26 175 0 29 11033 24 104605 15309 2.6 16 6 2 5 24% 5366 78825 11943 33%
c f 28.57 26 175 0 29 11033 24 104605 15309 2.6 16 6 2 5 24% 5411 78567 11966 33%
c u 28.66 26 175 0 29 11033 24 104605 14184 2.6 16 6 2 5 24% 5415 78567 11966 33%
c v 28.70 26 175 0 29 11033 24 104605 13881 2.6 16 6 2 5 24% 5415 78567 11966 33%
c w 28.83 26 175 0 29 11033 24 104605 13624 2.6 16 6 2 5 24% 5415 78567 11966 33%
c = 29.35 26 175 0 29 11033 24 104605 13624 2.6 16 6 2 5 24% 5737 78563 11805 32%
c d 29.35 26 175 0 29 11033 24 104605 13512 2.6 16 6 2 5 24% 5403 78563 11805 32%
c t 29.37 26 175 0 29 11033 24 104605 13512 2.6 16 6 2 5 24% 5396 78563 11805 32%
c f 29.39 26 175 0 29 11033 24 104605 13512 2.6 16 6 2 5 24% 5400 78540 11807 32%
c - 30.17 26 172 0 30 11403 24 107612 14635 2.5 16 6 2 5 24% 5409 78540 11807 32%
c
c  seconds   switched      rate          size/glue tier1    binary         remaining
c         MB   reductions    conflicts         size  tier2     irredundant
c           level   restarts        redundant    glue   trail         variables
c
c o 30.74 26 170 0 30 11662 23 110115 16950 2.5 16 6 2 5 24% 5413 78540 11807 32%
c - 31.43 26 167 0 31 11985 23 113089 17590 2.5 16 6 2 5 24% 5422 78540 11807 32%
c - 32.79 26 167 0 32 12660 23 118656 18317 2.5 16 7 1 5 25% 5441 78539 11807 32%
c - 34.33 26 164 0 33 13346 23 124312 19508 2.5 17 7 1 5 25% 5462 78538 11807 32%
c - 35.67 27 159 0 34 13946 23 130056 20571 2.5 17 7 1 5 25% 5488 78538 11807 32%
c c 36.61 29 158 0 34 14342 23 132861 23134 2.6 17 7 1 5 25% 5525 78425 11775 32%
c d 36.61 29 158 0 34 14342 23 132861 22997 2.6 17 7 1 5 25% 5461 78425 11775 32%
c u 36.66 29 158 0 34 14342 23 132861 20876 2.6 17 7 1 5 25% 5475 78425 11775 32%
c v 36.74 29 158 0 34 14342 23 132861 17314 2.6 17 7 1 5 25% 5481 78425 11775 32%
c w 36.89 29 158 0 34 14342 23 132861 17291 2.6 17 7 1 5 25% 5481 78425 11775 32%
c x 36.97 29 158 0 34 14342 23 132861 17291 2.6 17 7 1 5 25% 5481 78406 11775 32%
c = 37.51 29 158 0 34 14342 23 132861 17291 2.6 17 7 1 5 25% 5839 78374 11593 32%
c d 37.51 29 158 0 34 14342 23 132861 17029 2.6 17 7 1 5 25% 5453 78374 11593 32%
c t 37.52 29 158 0 34 14342 23 132861 17029 2.6 17 7 1 5 25% 5433 78374 11593 32%
c f 37.53 29 158 0 34 14342 23 132861 17029 2.6 17 7 1 5 25% 5444 78308 11599 32%
c u 37.58 29 158 0 34 14342 23 132861 16380 2.6 17 7 1 5 25% 5446 78308 11599 32%
c v 37.62 29 158 0 34 14342 23 132861 15616 2.6 17 7 1 5 25% 5446 78308 11599 32%
c w 37.84 29 158 0 34 14342 23 132861 15095 2.6 17 7 1 5 25% 5447 78308 11599 32%
c = 38.36 29 158 0 34 14342 23 132861 15095 2.6 17 7 1 5 25% 5515 78308 11565 32%
c d 38.36 29 158 0 34 14342 23 132861 15089 2.6 17 7 1 5 25% 5447 78308 11565 32%
c
c  seconds   switched      rate          size/glue tier1    binary         remaining
c         MB   reductions    conflicts         size  tier2     irredundant
c           level   restarts        redundant    glue   trail         variables
c
c t 38.37 29 158 0 34 14342 23 132861 15089 2.6 17 7 1 5 25% 5440 78308 11565 32%
c f 38.38 29 158 0 34 14342 23 132861 15089 2.6 17 7 1 5 25% 5440 78296 11566 32%
c - 38.76 29 156 0 35 14607 23 135886 15181 2.5 17 7 1 5 25% 5438 78295 11566 32%
c - 39.70 29 152 0 36 15255 22 141802 17908 2.5 18 7 1 5 26% 5442 78294 11566 32%
c - 40.69 29 151 0 37 15993 22 147802 20134 2.6 18 7 1 5 26% 5455 78292 11566 32%
c - 41.93 29 149 0 38 16809 23 153886 21992 2.6 19 7 1 5 26% 5465 78286 11566 32%
c s 42.75 29 148 0 38 17336 23 157887 25805 2.7 20 8 1 5 26% 5472 75235 11566 32%
c e 42.87 29 148 0 38 17336 23 157887 25805 2.7 20 8 1 5 26% 3073 87396 9974 27%
c 2 42.87 29 148 0 38 17336 23 157887 25805 2.7 20 8 1 5 26% 3072 87396 9974 27%
c s 42.89 29 148 0 38 17336 23 157887 25805 2.7 20 8 1 5 26% 3087 86152 9974 27%
c e 42.92 29 148 0 38 17336 23 157887 25805 2.7 20 8 1 5 26% 3034 86391 9921 27%
c ^ 42.92 29 148 0 38 17336 23 157887 25805 2.7 20 8 1 5 26% 3034 86391 9921 27%
c - 43.15 29 147 0 39 17467 22 160052 17336 2.7 20 8 1 4 26% 3036 86391 9921 27%
c o 43.17 29 147 0 39 17477 22 160117 17394 2.7 20 8 1 4 26% 3036 86391 9921 27%
c u 43.92 29 146 0 39 17930 22 164847 19492 2.6 20 8 1 4 26% 3048 86386 9921 27%
c v 43.98 29 146 0 39 17930 22 164847 16532 2.6 20 8 1 4 26% 3051 86386 9921 27%
c w 44.26 29 146 0 39 17930 22 164847 15480 2.6 20 8 1 4 26% 3051 86386 9921 27%
c d 44.89 29 146 0 39 17930 22 164847 15480 2.6 20 8 1 4 26% 3049 86386 9920 27%
c t 44.90 29 146 0 39 17930 22 164847 15480 2.6 20 8 1 4 26% 3031 86386 9920 27%
c f 45.01 29 146 0 39 17930 22 164847 15480 2.6 20 8 1 4 26% 3059 86054 9936 27%
c
c  seconds   switched      rate          size/glue tier1    binary        remaining
c         MB   reductions    conflicts         size  tier2     irredundant
c           level   restarts        redundant    glue   trail        variables
c
c u 45.07 29 146 0 39 17930 22 164847 15088 2.6 20 8 1 4 26% 3059 86054 9936 27%
c v 45.11 29 146 0 39 17930 22 164847 14645 2.6 20 8 1 4 26% 3059 86054 9936 27%
c w 45.33 29 146 0 39 17930 22 164847 14438 2.6 20 8 1 4 26% 3059 86054 9936 27%
c x 45.44 29 146 0 39 17930 22 164847 14414 2.6 20 8 1 4 26% 3087 83847 9936 27%
c t 45.45 29 146 0 39 17930 22 164847 14414 2.6 20 8 1 4 26% 3077 83847 9936 27%
c - 45.66 29 145 0 40 18076 22 166296 13497 2.6 20 8 1 4 26% 3077 83847 9936 27%
c - 46.29 29 142 0 41 18478 21 172620 16407 2.6 20 8 1 5 26% 3080 83847 9936 27%
c - 47.15 29 139 0 42 19113 21 179023 18898 2.6 20 8 1 5 26% 3089 83846 9936 27%
c - 48.12 29 137 0 43 19812 21 185504 20722 2.5 20 8 1 5 26% 3097 83845 9936 27%
c - 48.97 29 135 0 44 20359 21 192061 22086 2.5 20 8 1 5 26% 3108 83844 9936 27%
c - 50.00 29 133 0 45 21098 20 198694 23486 2.5 20 8 1 5 27% 3118 83844 9936 27%
c d 50.23 29 132 0 45 21242 20 200646 25272 2.5 20 8 1 5 26% 3115 83844 9933 27%
c u 50.29 29 132 0 45 21242 20 200646 23012 2.5 20 8 1 5 26% 3131 83844 9933 27%
c v 50.39 29 132 0 45 21242 20 200646 18384 2.5 20 8 1 5 26% 3132 83844 9933 27%
c w 50.49 29 132 0 45 21242 20 200646 17927 2.5 20 8 1 5 26% 3132 83844 9933 27%
c = 51.06 29 132 0 45 21242 20 200646 17927 2.5 20 8 1 5 26% 3178 83754 9903 27%
c d 51.07 29 132 0 45 21242 20 200646 17810 2.5 20 8 1 5 26% 3134 83754 9903 27%
c t 51.08 29 132 0 45 21242 20 200646 17810 2.5 20 8 1 5 26% 3112 83754 9903 27%
c u 51.16 29 132 0 45 21242 20 200646 17352 2.5 20 8 1 5 26% 3113 83754 9903 27%
c v 51.21 29 132 0 45 21242 20 200646 16655 2.5 20 8 1 5 26% 3114 83754 9903 27%
c
c  seconds   switched      rate          size/glue tier1    binary        remaining
c         MB   reductions    conflicts         size  tier2     irredundant
c           level   restarts        redundant    glue   trail        variables
c
c w 51.29 29 132 0 45 21242 20 200646 16513 2.5 20 8 1 5 26% 3114 83754 9903 27%
c x 51.42 29 132 0 45 21242 20 200646 16512 2.5 20 8 1 5 26% 3115 83714 9903 27%
c = 51.98 29 132 0 45 21242 20 200646 16512 2.5 20 8 1 5 26% 3185 83467 9844 27%
c d 51.98 29 132 0 45 21242 20 200646 16172 2.5 20 8 1 5 26% 3117 83466 9844 27%
c t 51.99 29 132 0 45 21242 20 200646 16172 2.5 20 8 1 5 26% 3112 83466 9844 27%
c i 52.02 29 132 0 45 21250 20 200892 16384 2.5 20 8 1 5 26% 3116 83464 9843 27%
c i 52.08 29 132 0 45 21286 20 201777 17126 2.5 20 8 1 5 26% 3125 83462 9842 27%
c i 52.28 29 130 0 45 21432 20 204307 19441 2.5 20 8 1 5 26% 3132 83461 9841 27%
c i 52.28 29 130 0 45 21433 20 204309 19438 2.5 20 8 1 5 26% 3132 83461 9840 27%
c i 52.35 29 130 0 45 21493 20 205013 20099 2.5 20 8 1 5 26% 3135 83460 9837 27%
c - 52.38 29 130 0 46 21532 20 205403 17074 2.5 20 8 1 5 26% 3082 83459 9837 27%
c i 52.40 29 129 0 46 21552 20 205942 17549 2.5 20 8 1 5 26% 3084 83459 9836 27%
c i 52.44 29 129 0 46 21586 20 206708 18232 2.5 20 8 1 5 26% 3091 83459 9835 27%
c i 52.46 29 128 0 46 21628 19 207324 18741 2.5 20 8 1 5 26% 3100 83458 9834 27%
c i 52.49 29 128 0 46 21662 19 207712 19098 2.5 20 8 1 5 26% 3103 83458 9833 27%
c i 52.50 29 128 0 46 21678 19 208154 19447 2.5 19 8 1 5 26% 3109 83458 9831 27%
c i 52.50 29 128 0 46 21686 19 208204 19493 2.5 19 8 1 5 26% 3110 83458 9829 27%
c i 52.52 29 127 0 46 21703 19 209014 20184 2.5 19 8 1 5 25% 3119 83458 9828 27%
c i 52.52 29 127 0 46 21712 19 209434 20532 2.5 19 8 1 5 25% 3122 83458 9826 27%
c i 52.53 29 126 0 46 21712 19 210146 21040 2.5 19 8 1 5 25% 3140 83454 9823 27%
c
c  seconds   switched      rate          size/glue tier1    binary        remaining
c         MB   reductions    conflicts         size  tier2     irredundant
c           level   restarts        redundant    glue   trail        variables
c
c i 52.53 29 126 0 46 21716 19 210185 21076 2.5 19 8 1 5 25% 3140 83454 9822 27%
c i 52.53 29 126 0 46 21717 19 210186 21074 2.5 19 8 1 5 25% 3140 83454 9821 27%
c i 52.53 29 126 0 46 21717 19 210196 21078 2.5 19 8 1 5 25% 3142 83453 9779 27%
c } 52.53 29 126 0 46 21717 19 210198 21078 2.5 19 8 1 5 25% 3142 83453 9762 27%
c 0 52.53 29 126 0 46 21717 19 210198 21078 2.5 19 8 1 5 25% 3142 83453 9762 27%
c
c ---- [ result ] ------------------------------------------------------------
c
s UNSATISFIABLE
c
c ---- [ profiling ] ---------------------------------------------------------
c
c          37.44   71.26 %  search
c          37.44   71.26 %  focused
c          14.64   27.86 %  simplify
c          14.01   26.67 %  probe
c           6.15   11.70 %  sweep
c           5.55   10.56 %  vivify
c           0.91    1.74 %  eliminate
c           0.87    1.66 %  factor
c           0.64    1.22 %  congruence
c           0.59    1.12 %  substitute
c           0.39    0.74 %  preprocess
c           0.26    0.49 %  reduce
c           0.16    0.30 %  subsume
c           0.14    0.27 %  transitive
c           0.09    0.17 %  fastel
c           0.07    0.14 %  backbone
c           0.04    0.08 %  lucky
c           0.03    0.06 %  parse
c =============================================
c          52.53  100.00 %  total
c
c ---- [ statistics ] --------------------------------------------------------
c
c chronological:                         5297                3 %  conflicts
c conflicts:                           210198             4001.11 per second
c congruent:                             4011               11 %  variables
c decisions:                          4327070               20.59 per conflict
c eliminated:                           19962               55 %  variables
c factored:                              3675               10 %  variables
c fast_eliminated:                      11069               55 %  eliminated
c fast_strengthened:                        3                0 %  per strengthened
c fast_subsumed:                           74                1 %  per subsumed
c iterations:                              19                0 %  variables
c propagations:                     182139225          3467012    per second
c reductions:                              46             4570    interval
c reordered:                                6            35033    interval
c restarts:                             21717               10    interval
c strengthened:                          5460                0 %  checks
c substituted:                          10175               28 %  variables
c subsumed:                             13362                0 %  checks
c switched:                                 0                0    interval
c vivified:                            101279               13 %  checks
c
c ---- [ glue usage ] --------------------------------------------------------
c
c focused glue 1 used 310016 clauses 58.29% accumulated 58.29% tier1
c focused glue 2 used 112274 clauses 21.11% accumulated 79.40%
c focused glue 3 used  34989 clauses  6.58% accumulated 85.98%
c focused glue 4 used  19861 clauses  3.73% accumulated 89.72%
c focused glue 5 used  12060 clauses  2.27% accumulated 91.98% tier2
c
c ---- [ resources ] ---------------------------------------------------------
c
c maximum-resident-set-size:         32276480 bytes         31 MB
c process-time:                            53s              52.53 seconds
c
c ---- [ shutting down ] -----------------------------------------------------
c
c exit 20
